%nprocshared=30
%mem=50GB
# wb97xd/6-31g(d,p) scrf=pcm geom=connectivity
ihs(3/107=0x*1000000,3/108=0x*1000000)
Title Card Required

-1 2
 C                  0.75231480    1.18055554    0.00000000
 H                  1.10896922    0.17174554    0.00000000
 H                  1.10898764    1.68495373    0.87365150
 H                  1.10898764    1.68495373   -0.87365150
 H                 -0.31768520    1.18056872    0.00000000

 1 2 1.0 3 1.0 4 1.0 5 1.0
 2
 3
 4
 5





